NAME : local_1
TYPE : ATSP
DIMENSION : 27
EDGE_WEIGHT_TYPE : EXPLICIT
EDGE_WEIGHT_FORMAT : FULL_MATRIX
EDGE_WEIGHT_SECTION
0 388 10000000 407 390 881 481 729 10000000 813 10000000 10000000 10000000 10000000 10000000 738 10000000 10000000 734 10000000 10000000 10000000 10000000 897 10000000 384 10000000 
0 0 10000000 358 660 10000000 788 10000000 10000000 932 10000000 10000000 10000000 10000000 10000000 10000000 10000000 10000000 10000000 10000000 10000000 10000000 10000000 855 10000000 772 10000000 
0 10000000 0 10000000 10000000 10000000 10000000 10000000 521 10000000 716 10000000 10000000 362 10000000 10000000 10000000 10000000 10000000 10000000 923 691 714 10000000 10000000 10000000 10000000 
0 358 10000000 0 420 10000000 556 942 10000000 577 10000000 10000000 10000000 10000000 846 751 10000000 10000000 10000000 10000000 10000000 909 1068 527 10000000 695 10000000 
0 660 10000000 420 0 848 138 548 10000000 477 10000000 10000000 10000000 10000000 781 367 894 782 902 946 10000000 10000000 10000000 699 929 385 10000000 
0 10000000 10000000 10000000 848 0 768 450 760 10000000 748 10000000 939 833 10000000 830 10000000 10000000 444 10000000 10000000 10000000 10000000 10000000 205 605 524 
0 788 10000000 556 138 768 0 425 10000000 507 10000000 10000000 10000000 10000000 794 257 828 699 881 943 10000000 10000000 10000000 785 829 348 10000000 
0 10000000 10000000 942 548 450 425 0 1079 856 984 10000000 10000000 10000000 10000000 439 960 802 720 10000000 10000000 10000000 10000000 10000000 466 376 672 
0 10000000 521 10000000 10000000 760 10000000 1080 0 10000000 209 661 536 162 10000000 10000000 10000000 10000000 900 10000000 681 10000000 909 10000000 777 10000000 834 
0 932 10000000 577 477 10000000 507 856 10000000 0 10000000 10000000 10000000 10000000 308 464 606 581 10000000 484 1137 970 998 384 10000000 844 10000000 
0 10000000 716 10000000 10000000 748 10000000 979 209 10000000 0 464 334 369 10000000 10000000 10000000 10000000 985 10000000 587 10000000 979 10000000 709 10000000 694 
0 10000000 10000000 10000000 10000000 10000000 10000000 10000000 661 10000000 464 0 132 806 10000000 10000000 10000000 10000000 10000000 10000000 471 10000000 10000000 10000000 931 10000000 753 
0 10000000 10000000 10000000 10000000 939 10000000 10000000 536 10000000 334 132 0 685 10000000 10000000 10000000 10000000 10000000 10000000 480 10000000 10000000 10000000 832 10000000 685 
0 10000000 362 10000000 10000000 833 10000000 10000000 162 10000000 369 806 685 0 10000000 10000000 10000000 10000000 891 10000000 752 914 844 10000000 883 10000000 977 
0 10000000 10000000 846 781 10000000 794 10000000 10000000 308 10000000 10000000 10000000 10000000 0 685 525 586 10000000 187 891 10000000 871 455 10000000 10000000 10000000 
0 10000000 10000000 751 367 830 257 439 10000000 464 10000000 10000000 10000000 10000000 685 0 591 450 10000000 796 10000000 10000000 10000000 824 827 552 938 
0 10000000 10000000 10000000 894 10000000 828 960 10000000 606 10000000 10000000 10000000 10000000 525 591 0 166 10000000 478 10000000 10000000 10000000 937 10000000 10000000 10000000 
0 10000000 10000000 10000000 782 10000000 699 802 10000000 581 10000000 10000000 10000000 10000000 586 450 166 0 10000000 587 10000000 10000000 10000000 946 10000000 998 10000000 
0 10000000 10000000 10000000 902 444 881 720 900 10000000 985 10000000 10000000 891 10000000 10000000 10000000 10000000 0 10000000 10000000 10000000 10000000 10000000 648 610 959 
0 10000000 10000000 10000000 946 10000000 943 10000000 10000000 484 10000000 10000000 10000000 10000000 187 796 478 587 10000000 0 977 10000000 956 623 10000000 10000000 10000000 
0 10000000 923 10000000 10000000 10000000 10000000 10000000 681 1119 587 471 480 752 928 10000000 10000000 10000000 10000000 947 0 979 714 10000000 10000000 10000000 10000000 
0 10000000 691 903 10000000 10000000 10000000 10000000 10000000 970 10000000 10000000 10000000 914 10000000 10000000 10000000 10000000 10000000 10000000 979 0 293 679 10000000 10000000 10000000 
0 10000000 714 1028 10000000 10000000 10000000 10000000 909 970 979 10000000 10000000 844 871 10000000 10000000 10000000 10000000 956 714 293 0 677 10000000 10000000 10000000 
0 855 10000000 527 699 10000000 785 10000000 10000000 384 10000000 10000000 10000000 10000000 455 824 937 946 10000000 623 10000000 679 677 0 10000000 10000000 10000000 
0 10000000 10000000 10000000 929 205 829 466 777 10000000 709 931 832 883 10000000 827 10000000 10000000 648 10000000 10000000 10000000 10000000 10000000 0 730 322 
0 772 10000000 695 385 605 348 376 10000000 844 10000000 10000000 10000000 10000000 10000000 552 10000000 998 610 10000000 10000000 10000000 10000000 10000000 730 0 10000000 
0 10000000 10000000 10000000 10000000 10000000 10000000 10000000 10000000 10000000 10000000 10000000 10000000 10000000 10000000 10000000 10000000 10000000 10000000 10000000 10000000 10000000 10000000 10000000 10000000 10000000 0 
EOF